30
5
20485
541 606 620 123 455
false
0.25
49 24 39 14 9 41 28 46 14 27 50 45 37 42 42 29 15 45 43 30 39 8 38 15 2 37 11 19 13 26
42 36 43 13 29 2 21 14 38 31 35 42 2 9 26 7 10 11 37 9 27 5 39 43 13 1 9 38 24 12
13 47 49 23 44 26 18 37 25 13 10 43 23 27 11 50 41 47 34 34 21 12 49 18 1 17 8 48 34 34
10 5 7 8 14 36 30 9 36 40 37 5 38 40 19 22 11 27 43 19 26 34 43 30 21 29 32 29 14 43
2 34 15 25 19 8 33 37 9 17 37 6 48 37 50 16 17 38 34 14 48 19 34 46 3 4 34 27 41 14
32 76 48 13 89 50 98 43 21 50 9 31 64 62 39 84 61 55 95 25 93 92 5 29 66 38 32 7 21 15
0 22 61 28 0 61 0 42 79 0 20 0 98 0 0 0 0 0 0 0 0 0 0 0 0 0 0 0 0 0
0 0 0 0 0 0 0 0 0 0 0 78 0 0 23 0 0 0 0 0 0 37 0 0 0 15 0 0 0
0 0 64 99 0 0 0 0 0 0 0 0 0 0 1 0 0 0 0 4 0 0 48 49 9 40 0 0
0 0 0 0 0 36 98 37 0 0 14 0 0 0 43 0 11 0 0 0 0 48 0 0 0 0 0
0 51 0 0 0 0 0 0 0 0 0 0 0 0 0 0 0 75 88 0 0 0 0 0 0 0
0 0 0 0 99 0 0 0 0 0 80 0 0 99 0 0 0 0 29 39 0 0 0 35 0
0 0 0 78 89 0 0 0 0 6 0 0 0 0 0 44 0 0 20 0 0 0 0 0
0 0 52 0 0 0 0 0 0 33 0 0 77 0 0 0 0 0 0 89 0 0 32
0 0 0 15 0 0 19 0 0 52 0 21 0 0 38 31 0 0 67 0 42 0
0 0 0 0 0 0 0 0 0 51 0 0 13 0 0 0 0 0 52 83 0
0 0 52 0 0 0 0 0 0 0 0 0 0 0 27 0 0 57 0 0
0 0 37 0 0 0 0 0 0 0 0 29 0 0 0 0 0 0 0
0 0 0 0 0 0 0 0 24 0 0 0 0 0 0 72 26 0
0 99 0 36 0 0 100 0 0 0 0 0 9 0 0 0 70
0 0 0 0 0 41 69 0 0 0 0 8 0 0 0 0
0 20 0 0 0 0 0 23 54 0 0 17 0 0 0
0 0 0 18 0 0 72 0 0 0 0 51 0 0
0 74 0 83 0 0 0 12 0 0 0 0 0
0 0 0 36 0 0 0 79 74 0 66 0
0 0 23 0 0 0 0 0 77 0 0
0 0 0 18 0 0 0 0 0 0
0 0 0 0 59 0 8 12 0
0 0 39 52 0 0 75 0
0 0 0 58 0 0 0
0 0 0 0 0 19
0 0 12 0 0
0 0 67 0
0 0 0
0 22
0 0 0 0 0 0 0 0 0 100 22 0 0 0 67 43 88 0 0 81 0 0 0 0 92 13 0 0 100
0 6 0 0 0 65 0 53 75 0 0 1 95 0 0 0 0 0 0 0 0 92 0 0 0 0 0 29
0 0 65 0 0 0 0 0 0 0 30 0 0 32 36 0 0 0 84 0 0 84 0 0 42 0 66
0 0 0 0 0 0 0 43 51 0 93 0 0 31 0 0 0 0 0 86 0 0 0 0 0 0
0 0 0 0 51 0 0 0 0 0 0 0 0 0 11 66 0 36 0 0 0 0 65 0 0
0 0 0 26 0 47 0 0 0 0 0 0 0 0 0 0 0 99 0 50 0 16 0 0
0 0 0 58 0 0 0 0 0 0 0 0 0 87 0 20 58 0 65 0 0 0 41
0 0 0 0 4 1 0 30 0 0 0 0 0 0 0 0 0 0 0 0 0 85
0 0 0 0 0 0 81 0 0 0 0 0 0 0 31 13 48 0 0 54 0
0 0 13 0 0 0 76 0 0 0 77 0 0 0 0 0 0 0 100 73
0 0 0 30 0 0 0 0 0 0 0 0 0 0 0 0 0 0 0
0 0 0 0 0 0 0 0 0 45 0 0 0 0 0 0 0 3
0 80 0 0 0 0 0 21 95 0 53 30 75 0 0 0 0
0 0 0 0 0 89 61 0 55 0 0 0 0 56 0 0
0 43 0 0 0 0 97 79 0 0 64 78 0 37 0
0 0 66 0 93 12 4 0 0 0 74 0 54 0
0 0 0 90 0 0 20 0 9 51 20 0 0
0 0 0 100 1 52 67 0 0 0 0 0
0 0 0 73 55 0 34 0 0 0 0
0 0 0 0 50 0 0 0 65 0
0 0 0 15 0 0 0 0 0
0 0 0 0 0 73 0 0
0 0 21 0 0 0 0
0 0 0 50 0 0
0 0 0 0 20
0 95 79 0
0 2 0
0 13
0
0 0 0 0 0 53 0 0 0 56 0 0 0 0 36 0 0 0 0 0 0 0 0 0 0 0 0 0
0 0 99 0 0 0 0 0 31 0 0 0 0 0 0 0 17 0 0 0 0 0 0 0 0 0 0
0 0 0 0 0 0 0 0 0 0 0 0 0 0 0 0 0 0 0 0 41 0 45 0 0 12
0 0 0 0 0 0 0 53 0 25 0 88 0 31 0 0 0 0 22 0 0 0 0 0 25
0 0 0 48 0 0 0 0 0 0 22 0 0 92 23 0 0 0 0 26 0 86 0 0
0 0 0 0 0 61 0 0 0 0 15 0 0 0 83 0 0 0 0 0 17 30 36
0 77 50 0 0 0 0 0 0 0 53 0 0 0 0 0 0 0 0 0 0 0
0 0 69 0 37 0 0 0 82 0 0 0 0 0 30 75 82 0 86 0 41
0 73 0 0 0 24 0 100 29 0 0 0 28 0 0 0 64 0 0 0
0 0 0 92 0 0 0 0 86 0 77 0 0 50 0 0 0 0 0
0 0 0 0 49 0 0 0 0 0 0 0 0 0 0 0 0 16
0 0 0 0 0 0 40 0 0 0 0 0 0 39 0 11 0
0 0 0 69 96 0 62 0 36 83 0 0 0 0 0 0
0 67 0 0 0 80 0 0 78 0 0 0 0 0 0
0 0 0 75 0 0 75 84 0 0 0 0 0 74
0 0 0 0 0 0 0 0 0 0 0 0 99
0 58 85 0 59 0 50 0 0 0 49 67
0 0 0 0 90 0 85 51 0 0 38
0 0 49 20 0 24 51 32 23 0
0 37 0 0 0 0 0 37 0
0 0 63 9 0 0 0 0
0 0 0 0 0 0 23
0 0 0 0 0 0
0 61 0 0 0
0 0 23 0
0 0 0
0 0
0
0 0 0 0 44 0 0 0 0 0 0 0 15 82 0 0 0 0 0 0 0 0 0 0 0 37 2
0 0 0 0 0 40 7 0 0 0 0 0 0 0 0 0 80 0 0 0 0 0 0 0 0 0
0 0 0 0 0 0 61 0 0 12 3 0 0 23 0 0 0 0 0 57 0 0 0 0 0
0 20 0 0 0 0 0 0 0 0 0 0 36 0 0 0 82 0 0 0 0 0 0 0
0 0 0 76 32 73 0 0 0 19 0 0 10 48 98 0 0 39 0 0 0 0 0
0 0 0 0 0 68 33 26 46 0 61 61 70 0 0 0 0 0 0 0 0 61
0 0 86 49 0 0 0 0 32 0 85 0 0 59 0 37 0 0 3 81 0
0 45 0 0 0 0 0 80 0 0 53 0 0 0 0 0 63 0 0 0
0 4 32 81 0 0 0 0 0 0 0 0 0 0 0 0 82 0 0
0 0 0 0 0 15 0 84 0 0 0 0 0 44 0 0 0 0
0 0 68 93 0 0 0 0 0 0 19 0 0 54 26 0 48
0 0 0 0 29 0 0 43 0 0 0 0 94 0 9 0
0 0 0 0 0 0 0 55 0 83 0 0 8 28 0
0 15 0 0 0 0 0 16 0 36 0 63 0 0
0 36 0 0 37 38 0 0 0 0 0 0 57
0 27 0 0 0 0 0 49 0 57 0 69
0 0 0 0 0 0 0 95 0 0 0
0 0 59 0 0 0 0 0 0 0
0 0 18 0 82 0 0 0 0
0 29 0 95 0 0 0 0
0 0 0 0 0 0 0
0 0 0 0 0 0
0 0 0 0 0
0 0 0 0
0 0 0
0 0
0
0 0 0 0 0 0 55 0 90 0 0 0 0 0 0 15 0 0 0 0 37 56 19 0 0 0
0 0 0 0 0 67 74 0 0 0 0 0 0 55 0 0 81 0 0 0 0 71 0 66 63
0 0 0 0 0 0 0 13 0 7 0 98 55 0 0 33 0 7 0 0 0 0 0 0
0 92 0 82 15 0 98 83 38 50 84 0 8 0 0 0 0 0 0 0 32 0 0
0 0 0 3 0 0 2 0 0 11 0 77 46 0 0 0 0 0 0 0 0 0
0 0 13 0 0 33 0 0 0 0 0 0 0 0 0 0 0 60 0 0 0
0 0 0 0 31 0 0 0 0 0 0 50 0 0 0 0 0 28 0 0
0 0 0 0 0 0 0 87 0 0 0 0 0 0 84 0 87 0 0
0 0 0 0 0 0 0 69 0 89 0 0 0 0 0 0 73 0
0 75 0 0 0 0 0 0 0 0 15 89 0 0 0 0 5
0 66 0 0 0 0 0 77 0 0 0 0 0 100 0 3
0 0 0 0 0 3 0 0 69 0 0 0 0 0 0
0 63 0 0 0 0 50 0 0 0 0 0 0 0
0 0 25 0 34 0 0 0 0 0 83 0 0
0 0 0 0 0 20 0 0 100 0 83 0
0 0 0 0 0 0 0 0 5 0 0
0 63 0 0 0 0 0 0 0 39
0 77 7 0 0 0 0 6 0
0 33 0 0 0 0 0 0
0 0 0 0 0 0 0
0 0 0 78 75 0
0 0 0 0 49
0 0 0 0
0 0 0
0 0
0
0 0 0 0 0 0 0 0 0 53 54 0 0 0 0 0 0 0 0 0 0 0 0 0 0
0 0 80 0 0 0 97 22 1 0 0 0 63 0 0 0 10 0 35 44 0 0 0 0
0 0 17 0 0 0 0 0 0 0 0 86 0 0 38 0 0 95 0 0 0 0 0
0 0 0 30 0 69 0 60 0 19 0 76 0 0 0 0 86 0 0 0 0 94
0 0 0 100 0 0 0 0 0 0 0 0 0 0 20 0 0 0 76 0 0
0 42 0 0 0 87 0 0 99 0 0 0 0 0 0 0 66 0 0 0
0 0 0 0 27 10 0 40 0 0 0 0 0 0 2 0 0 62 0
0 0 0 0 35 0 0 0 0 0 74 0 3 0 94 0 0 0
0 0 0 0 0 0 0 0 0 0 0 12 1 56 75 0 0
0 0 0 89 0 14 0 15 6 0 27 54 0 0 0 57
0 48 0 0 0 17 0 0 80 0 0 0 0 0 0
0 0 0 0 0 37 0 0 41 0 0 0 32 0
0 0 0 0 0 0 0 0 0 0 0 0 0
0 0 0 86 0 0 0 0 0 0 0 0
0 34 75 0 0 23 75 78 0 0 0
0 0 0 0 0 0 0 76 17 0
0 0 0 0 92 0 80 0 0
0 0 8 0 0 0 0 0
0 0 0 0 0 0 0
0 0 0 30 0 0
0 91 0 0 90
0 0 15 17
0 0 0
0 0
0
0 0 33 30 0 0 0 0 0 0 0 0 0 0 0 0 0 0 0 35 0 0 31 0
0 0 0 0 0 0 0 0 0 0 0 0 0 0 0 0 0 1 78 41 36 0 33
0 0 0 0 0 0 22 0 0 81 0 80 14 0 0 0 0 0 0 0 0 0
0 0 0 0 0 0 0 0 100 0 0 0 48 0 0 55 0 94 0 0 0
0 0 44 0 0 0 0 28 0 0 0 0 0 41 0 0 0 78 0 0
0 0 0 0 0 0 0 61 0 5 0 95 0 0 0 37 99 0 47
0 0 52 0 0 0 0 30 0 0 86 14 0 0 0 83 0 0
0 21 0 0 0 0 26 0 0 0 0 64 0 0 93 0 0
0 0 0 57 0 0 0 0 0 76 0 0 0 0 35 0
0 0 0 0 0 0 0 0 0 0 0 0 0 0 80
0 0 0 29 0 0 9 0 0 0 0 0 0 0
0 0 0 0 24 0 0 58 0 0 0 0 0
0 0 0 88 0 4 0 33 0 0 0 0
0 17 0 42 0 0 0 0 0 0 0
0 18 31 0 0 0 0 0 0 0
0 0 0 17 0 41 0 0 55
0 86 0 0 69 1 0 41
0 0 19 0 0 0 60
0 56 0 0 0 0
0 71 0 0 0
0 0 0 0
0 0 22
0 0
0
0 0 0 51 0 0 0 0 0 0 16 40 0 0 0 0 56 0 0 0 0 0 0
0 84 0 0 89 0 0 0 0 0 0 0 0 0 82 0 87 92 19 0 0 0
0 0 0 0 0 0 6 0 0 0 18 0 0 10 66 0 0 0 0 0 33
0 73 0 47 0 0 0 0 0 0 0 0 0 3 0 0 96 0 0 0
0 0 0 0 0 0 98 77 0 0 0 78 11 0 27 5 0 16 0
0 32 72 0 71 0 57 73 0 0 1 92 0 0 0 0 0 0
0 13 0 29 0 0 0 0 0 0 0 0 0 0 0 0 0
0 0 0 0 0 66 0 0 0 69 0 0 0 0 0 45
0 0 0 98 0 14 44 0 0 0 60 0 0 0 0
0 34 72 0 11 0 22 0 73 44 0 0 0 0
0 0 0 0 0 21 3 0 0 81 0 66 0
0 0 0 45 0 0 0 0 0 0 89 39
0 0 0 0 0 0 0 0 0 0 0
0 0 38 0 0 0 0 0 0 0
0 0 6 0 0 0 0 0 0
0 49 0 40 4 66 0 0
0 0 0 25 0 0 0
0 0 8 49 0 0
0 0 45 0 0
0 64 0 0
0 0 24
0 34
0
0 0 0 0 14 90 0 97 0 0 0 23 76 0 0 65 0 0 0 0 90 0
0 0 0 24 0 0 0 36 0 0 0 0 0 54 37 0 0 46 0 36 0
0 53 0 0 58 0 0 0 0 0 0 0 0 0 83 0 0 0 0 85
0 0 43 0 0 0 91 34 0 0 25 38 43 0 0 0 0 0 78
0 90 0 0 0 39 17 0 0 3 0 58 0 0 29 0 0 0
0 9 30 0 0 10 0 0 0 19 48 83 0 0 0 13 0
0 0 0 0 0 0 67 0 0 16 0 0 0 0 23 74
0 0 82 25 0 0 0 0 0 0 23 0 76 0 0
0 0 82 0 0 0 0 0 0 0 0 0 0 0
0 0 94 0 0 0 0 0 68 0 0 88 0
0 36 0 66 0 0 0 0 0 30 0 0
0 80 0 0 28 49 0 0 0 0 0
0 0 0 53 0 0 0 80 1 94
0 0 0 0 0 0 0 0 64
0 0 21 0 0 0 0 95
0 0 0 75 0 0 0
0 0 0 0 0 0
0 0 0 0 0
0 0 0 6
0 0 0
0 0
0
0 0 49 0 37 0 0 25 0 64 0 29 31 30 0 11 0 0 0 0 16
0 26 74 0 0 0 0 13 35 0 14 0 0 0 0 0 80 0 0 0
0 0 0 0 0 0 0 0 50 0 62 0 76 0 0 0 0 0 66
0 0 0 0 0 0 74 0 0 92 0 0 0 0 0 98 0 0
0 0 0 0 0 0 70 93 0 84 0 0 0 0 0 0 79
0 0 0 71 0 0 0 0 95 0 59 0 0 67 0 0
0 0 57 34 0 96 0 0 8 0 94 51 0 48 0
0 42 0 0 0 6 0 0 0 0 0 0 25 0
0 17 90 0 1 0 93 0 0 0 0 0 49
0 13 0 0 0 0 0 0 0 0 0 0
0 41 0 70 0 0 0 0 0 0 0
0 39 0 0 18 70 0 0 0 0
0 0 0 76 0 0 85 7 0
0 0 0 0 0 0 54 0
0 75 23 60 0 0 0
0 47 0 0 0 49
0 0 0 57 0
0 0 0 0
0 0 0
0 0
0
0 31 59 0 0 0 0 0 0 0 70 0 0 78 0 0 0 0 0 32
0 24 0 0 0 11 61 65 0 61 0 98 0 33 0 0 0 92 0
0 0 0 0 0 0 0 0 0 0 0 86 37 0 0 0 0 98
0 0 0 93 0 0 0 0 0 0 0 0 0 0 92 0 32
0 0 42 0 0 0 0 62 0 0 0 0 0 0 0 0
0 0 0 0 97 0 0 0 76 0 0 0 0 0 89
0 81 0 0 34 0 0 0 0 0 96 0 0 0
0 0 0 24 0 0 0 0 0 0 5 0 0
0 0 0 0 0 0 0 86 11 0 8 0
0 0 92 0 96 38 0 71 21 0 0
0 0 0 0 0 70 0 0 0 0
0 0 0 0 0 0 0 0 84
0 0 0 0 0 0 0 0
0 0 0 32 0 0 0
0 0 0 21 0 0
0 0 0 0 92
0 0 0 23
0 0 0
0 0
0
0 0 0 0 0 0 0 82 80 0 0 0 0 0 0 0 0 0 85
0 0 81 0 0 83 0 60 62 0 75 0 0 0 0 0 63 92
0 0 5 81 0 0 0 92 0 0 44 38 0 0 81 99 0
0 0 0 0 0 72 0 0 0 0 0 9 0 0 0 0
0 0 0 0 0 0 0 4 57 0 0 0 0 0 3
0 0 0 0 0 0 0 0 0 0 0 0 60 0
0 0 0 0 47 0 0 0 0 59 4 26 85
0 64 0 0 0 41 0 0 0 0 25 86
0 0 0 0 0 0 97 0 0 0 70
0 40 0 0 0 0 36 0 0 0
0 88 0 0 0 0 0 0 0
0 0 0 0 23 0 22 0
0 0 0 0 0 0 100
0 0 0 0 0 0
0 0 97 0 60
0 0 0 0
0 0 0
0 0
0
0 0 0 0 3 0 0 0 0 0 0 0 0 0 44 0 0 0
0 0 0 0 0 0 0 0 78 0 0 0 51 0 0 0 0
0 0 0 27 0 0 0 0 100 0 0 0 0 0 0 0
0 0 24 0 0 0 0 0 0 0 0 0 0 33 0
0 0 0 0 0 0 0 0 91 0 0 0 0 0
0 0 0 0 73 17 0 0 4 27 43 0 0
0 0 0 0 74 18 0 0 0 0 10 0
0 0 0 0 0 0 0 0 53 0 0
0 65 0 0 29 73 0 55 0 8
0 51 0 99 83 0 0 0 49
0 0 0 0 55 0 0 77
0 0 0 0 0 83 0
0 0 0 59 0 0
0 0 0 100 0
0 0 0 0
0 0 17
0 23
0
0 0 0 0 0 0 0 0 49 0 71 0 0 0 0 0 0
0 0 70 18 0 0 0 0 0 0 0 0 0 66 0 0
0 41 57 10 0 0 0 0 0 0 0 0 0 80 0
0 0 0 0 39 32 100 0 87 0 0 0 81 79
0 0 0 90 82 0 14 0 0 0 0 0 0
0 0 0 0 0 0 0 0 0 0 0 61
0 0 0 0 0 0 0 0 0 0 20
0 0 0 0 0 34 0 0 0 70
0 79 0 0 0 0 0 0 0
0 0 0 7 0 0 0 98
0 0 31 0 65 57 20
0 0 0 0 0 76
0 0 0 19 66
0 0 24 0
0 0 0
0 74
0
0 0 0 0 0 0 0 0 19 0 0 0 0 4 61 7
0 0 96 0 10 0 0 0 0 0 32 0 0 21 0
0 0 0 54 0 0 0 0 0 0 0 0 0 0
0 0 33 0 0 9 34 0 0 25 0 0 0
0 0 36 21 0 35 64 0 0 0 0 0
0 92 0 0 0 0 0 0 0 87 30
0 0 0 69 16 0 56 0 0 0
0 0 0 0 0 0 19 0 0
0 0 0 0 12 0 0 0
0 0 0 61 0 0 0
0 0 13 0 0 68
0 0 0 0 0
0 0 0 0
0 0 0
0 0
0
0 0 0 29 0 0 39 0 0 32 0 0 0 0 56
0 0 0 0 53 0 0 0 0 0 0 55 0 0
0 0 0 0 0 0 0 0 0 0 0 0 0
0 0 0 0 0 0 0 35 0 28 0 97
0 0 63 0 0 0 83 0 83 0 0
0 0 0 0 0 0 50 0 0 0
0 0 71 0 0 0 0 0 51
0 0 42 0 0 8 0 0
0 79 27 0 0 73 0
0 0 0 0 70 0
0 0 0 0 0
0 0 0 2
0 0 0
0 0
0
0 0 0 0 0 0 0 0 0 53 0 83 86 0
0 0 0 64 68 0 80 0 0 0 0 0 0
0 82 90 53 0 27 0 0 0 0 0 12
0 52 0 0 0 0 0 0 0 0 95
0 83 0 0 0 0 27 0 0 0
0 65 0 0 0 0 0 0 0
0 0 4 0 0 0 0 0
0 0 0 0 0 0 0
0 3 0 0 0 0
0 0 0 0 0
0 0 0 54
0 0 0
0 0
0
0 0 0 0 0 0 0 0 0 0 0 83 0
0 0 0 0 0 0 0 0 0 0 0 0
0 0 0 0 0 91 0 0 0 68 0
0 20 0 35 0 0 0 0 0 0
0 56 54 0 0 0 0 0 72
0 0 0 0 0 0 25 0
0 0 0 0 0 0 0
0 0 0 83 0 30
0 0 75 0 70
0 0 0 45
0 0 0
0 0
0
0 0 0 66 0 0 0 0 0 0 0 0
0 25 22 0 0 11 0 0 0 98 39
0 0 40 0 36 0 27 0 8 0
0 0 0 0 47 0 20 0 88
0 0 0 28 71 32 0 0
0 0 0 0 0 69 0
0 0 0 0 76 0
0 73 0 0 0
0 0 0 0
0 0 0
0 0
0
0 0 43 0 36 0 0 21 0 75 0
0 0 0 10 0 0 0 79 0 0
0 66 0 0 58 0 0 0 98
0 58 34 0 0 0 0 0
0 0 20 0 0 0 0
0 0 0 98 0 0
0 13 80 0 0
0 0 70 0
0 43 73
0 0
0
0 0 45 0 0 0 0 0 0 0
0 46 12 0 37 47 23 50 0
0 30 0 59 0 0 3 0
0 0 0 0 33 0 0
0 19 0 0 0 0
0 92 0 18 0
0 0 0 75
0 0 0
0 34
0
0 0 0 0 0 0 0 0 61
0 0 0 40 0 0 0 0
0 0 0 0 0 0 0
0 0 35 43 0 0
0 97 0 32 0
0 0 46 0
0 10 99
0 78
0
0 0 21 65 0 0 0 0
0 0 0 0 0 0 0
0 4 0 0 7 0
0 0 96 0 0
0 5 0 0
0 0 0
0 60
0
0 0 0 0 0 0 0
0 83 0 83 0 0
0 0 0 0 31
0 0 81 0
0 0 0
0 0
0
0 0 0 0 0 0
0 0 0 45 0
0 0 0 0
0 0 0
0 0
0
0 28 0 0 0
0 0 95 0
0 0 0
0 93
0
0 20 0 0
0 0 0
0 0
0
0 0 0
0 0
0
0 0
0
0
6139 5552 4956 4879 4682 4974 4870 5949 6195 5924 5892 5669 5844 4991 5215 4969 5017 5726 6129 6095 5537 6139 5385 4914 4769 5439 4869 5055 4967 6228
885.4166300366302 355.4754665554165 276.3751188346538 348.19462541806024 273.7858426107065 711.9082864290182 197.25959595959597 307.36444519053214 342.7485964912281 272.55341550571154 238.77386872586877 494.2849021779254 721.914475230379 223.58152652652652 235.52163660900501 303.40162136139725 341.9482152949871 226.4755941648663 162.24956557104298 363.160042262519 187.80616096866098 602.084484004128 134.6600639314195 197.10103134479272 1867.4216117216117 1490.6485801217038 377.52469919786097 173.1848028836459 242.2111094907006 306.28185685723304
